p cnf 684 2260
a 2 3 4 5 6 7 8 12 17 19 21 22 23 26 28 30 31 33 35 37 38 40 42 44 46 48 50 52 55 56 63 65 69 73 75 77 81 88 93 98 101 102 109 110 114 118 119 122 126 130 132 134 136 138 139 143 147 149 153 157 162 164 0
e 1 9 10 11 13 14 15 16 18 20 24 25 27 29 32 34 36 39 41 43 45 47 49 51 53 54 57 58 59 60 61 62 64 66 67 68 70 71 72 74 76 78 79 80 82 83 84 85 86 87 89 90 91 92 94 95 96 97 99 100 103 104 105 106 107 108 111 112 113 115 116 117 120 121 123 124 125 127 128 129 131 133 135 137 140 141 142 144 145 146 148 150 151 152 154 155 156 158 159 160 161 163 165 166 167 168 169 170 171 172 173 174 175 176 177 178 179 180 181 182 183 184 185 186 187 188 189 190 191 192 193 194 195 196 197 198 199 200 201 202 203 204 205 206 207 208 209 210 211 212 213 214 215 216 217 218 219 220 221 222 223 224 225 226 227 228 229 230 231 232 233 234 235 236 237 238 239 240 241 242 243 244 245 246 247 248 249 250 251 252 253 254 255 256 257 258 259 260 261 262 263 264 265 266 267 268 269 270 271 272 273 274 275 276 277 278 279 280 281 282 283 284 285 286 287 288 289 290 291 292 293 294 295 296 297 298 299 300 301 302 303 304 305 306 307 308 309 310 311 312 313 314 315 316 317 318 319 320 321 322 323 324 325 326 327 328 329 330 331 332 333 334 335 336 337 338 339 340 341 342 343 344 345 346 347 348 349 350 351 352 353 354 355 356 357 358 359 360 361 362 363 364 365 366 367 368 369 370 371 372 373 374 375 376 377 378 379 380 381 382 383 384 385 386 387 388 389 390 391 392 393 394 395 396 397 398 399 400 401 402 403 404 405 406 407 408 409 410 411 412 413 414 415 416 417 418 419 420 421 422 423 424 425 426 427 428 429 430 431 432 433 434 435 436 437 438 439 440 441 442 443 444 445 446 447 448 449 450 451 452 453 454 455 456 457 458 459 460 461 462 463 464 465 466 467 468 469 470 471 472 473 474 475 476 477 478 479 480 481 482 483 484 485 486 487 488 489 490 491 492 493 494 495 496 497 498 499 500 501 502 503 504 505 506 507 508 509 510 511 512 513 514 515 516 517 518 519 520 521 522 523 524 525 526 527 528 529 530 531 532 533 534 535 536 537 538 539 540 541 542 543 544 545 546 547 548 549 550 551 552 553 554 555 556 557 558 559 560 561 562 563 564 565 566 567 568 569 570 571 572 573 574 575 576 577 578 579 580 581 582 583 584 585 586 587 588 589 590 591 592 593 594 595 596 597 598 599 600 601 602 603 604 605 606 607 608 609 610 611 612 613 614 615 616 617 618 619 620 621 622 623 624 625 626 627 628 629 630 631 632 633 634 635 636 637 638 639 640 641 642 643 644 645 646 647 648 649 650 651 652 653 654 655 656 657 658 659 660 661 662 663 664 665 666 667 668 669 670 671 672 673 674 675 676 677 678 679 680 681 682 683 684 0
1 0
7 -9 0
8 -9 0
-7 -8 9 0
7 -10 0
-8 -10 0
-7 8 10 0
7 11 0
-9 11 0
-10 11 0
-7 9 10 -11 0
-12 13 0
12 13 0
6 -14 0
11 -14 0
13 -14 0
-6 -11 -13 14 0
-6 -15 0
11 -15 0
6 -11 15 0
-14 16 0
-15 16 0
14 15 -16 0
-17 18 0
17 18 0
-19 20 0
19 20 0
22 -24 0
-23 -24 0
-22 23 24 0
22 25 0
-24 25 0
-22 24 -25 0
-26 27 0
26 27 0
27 -29 0
28 -29 0
-27 -28 29 0
-31 32 0
31 32 0
32 -34 0
-33 -34 0
-32 33 34 0
32 -36 0
33 -36 0
35 -36 0
-32 -33 -35 36 0
32 -39 0
33 -39 0
-35 -39 0
37 -39 0
38 -39 0
-32 -33 35 -37 -38 39 0
32 -41 0
33 -41 0
-35 -41 0
37 -41 0
-38 -41 0
-40 -41 0
-32 -33 35 -37 38 40 41 0
32 -43 0
33 -43 0
-35 -43 0
-37 -43 0
-42 -43 0
-32 -33 35 37 42 43 0
32 -45 0
33 -45 0
-35 -45 0
-37 -45 0
42 -45 0
44 -45 0
-32 -33 35 37 -42 -44 45 0
32 -47 0
33 -47 0
-35 -47 0
37 -47 0
-38 -47 0
40 -47 0
46 -47 0
-32 -33 35 -37 38 -40 -46 47 0
32 -49 0
33 -49 0
-35 -49 0
37 -49 0
-38 -49 0
40 -49 0
-46 -49 0
48 -49 0
-32 -33 35 -37 38 -40 46 -48 49 0
-50 51 0
50 51 0
32 -53 0
33 -53 0
-35 -53 0
-37 -53 0
42 -53 0
-44 -53 0
51 -53 0
52 -53 0
-32 -33 35 37 -42 44 -51 -52 53 0
32 -54 0
33 -54 0
-35 -54 0
-37 -54 0
42 -54 0
-44 -54 0
51 -54 0
-52 -54 0
-32 -33 35 37 -42 44 -51 52 54 0
55 -57 0
56 -57 0
-55 -56 57 0
55 -58 0
-56 -58 0
-55 56 58 0
55 59 0
-57 59 0
-58 59 0
-55 57 58 -59 0
32 -60 0
33 -60 0
-35 -60 0
37 -60 0
-38 -60 0
40 -60 0
-46 -60 0
-48 -60 0
59 -60 0
-32 -33 35 -37 38 -40 46 48 -59 60 0
-34 61 0
-36 61 0
-39 61 0
-41 61 0
-43 61 0
-45 61 0
-47 61 0
-49 61 0
-53 61 0
-54 61 0
-60 61 0
34 36 39 41 43 45 47 49 53 54 60 -61 0
27 -62 0
-28 -62 0
-30 -62 0
61 -62 0
-27 28 30 -61 62 0
27 -64 0
-28 -64 0
30 -64 0
-63 -64 0
-27 28 -30 63 64 0
27 -66 0
-28 -66 0
30 -66 0
63 -66 0
-65 -66 0
-27 28 -30 -63 65 66 0
27 -67 0
-28 -67 0
30 -67 0
63 -67 0
65 -67 0
-27 28 -30 -63 -65 67 0
-62 68 0
-64 68 0
-66 68 0
-67 68 0
62 64 66 67 -68 0
68 -70 0
69 -70 0
-68 -69 70 0
68 -71 0
-69 -71 0
-68 69 71 0
-29 72 0
-70 72 0
-71 72 0
29 70 71 -72 0
-73 74 0
73 74 0
21 -76 0
25 -76 0
72 -76 0
74 -76 0
75 -76 0
-21 -25 -72 -74 -75 76 0
-77 78 0
77 78 0
21 -79 0
25 -79 0
72 -79 0
74 -79 0
-75 -79 0
78 -79 0
-21 -25 -72 -74 75 -78 79 0
-76 80 0
-79 80 0
76 79 -80 0
80 -82 0
81 -82 0
-80 -81 82 0
80 -83 0
-81 -83 0
-80 81 83 0
21 84 0
-82 84 0
-83 84 0
-21 82 83 -84 0
5 -85 0
16 -85 0
18 -85 0
20 -85 0
84 -85 0
-5 -16 -18 -20 -84 85 0
-5 -86 0
16 -86 0
18 -86 0
20 -86 0
5 -16 -18 -20 86 0
-85 87 0
-86 87 0
85 86 -87 0
88 89 0
-88 89 0
4 -90 0
87 -90 0
89 -90 0
-4 -87 -89 90 0
-4 -91 0
87 -91 0
4 -87 91 0
-90 92 0
-91 92 0
90 91 -92 0
93 94 0
-93 94 0
3 -95 0
92 -95 0
94 -95 0
-3 -92 -94 95 0
-3 -96 0
92 -96 0
3 -92 96 0
-95 97 0
-96 97 0
95 96 -97 0
98 99 0
-98 99 0
2 -100 0
97 -100 0
99 -100 0
-2 -97 -99 100 0
102 103 0
-102 103 0
101 -104 0
97 -104 0
103 -104 0
-101 -97 -103 104 0
-101 -105 0
97 -105 0
101 -97 105 0
-104 106 0
-105 106 0
104 105 -106 0
-2 -107 0
106 -107 0
2 -106 107 0
-100 108 0
-107 108 0
100 107 -108 0
109 -111 0
110 -111 0
-109 -110 111 0
109 -112 0
-110 -112 0
-109 110 112 0
-111 113 0
-112 113 0
111 112 -113 0
113 -115 0
114 -115 0
-113 -114 115 0
113 -116 0
-114 -116 0
-113 114 116 0
-115 117 0
-116 117 0
115 116 -117 0
117 -120 0
-118 -120 0
119 -120 0
-117 118 -119 120 0
117 -121 0
-118 -121 0
-119 -121 0
-117 118 119 121 0
117 -123 0
118 -123 0
122 -123 0
-117 -118 -122 123 0
117 -124 0
118 -124 0
-122 -124 0
-117 -118 122 124 0
-120 125 0
-121 125 0
-123 125 0
-124 125 0
120 121 123 124 -125 0
125 -127 0
126 -127 0
-125 -126 127 0
125 -128 0
-126 -128 0
-125 126 128 0
-127 129 0
-128 129 0
127 128 -129 0
129 -131 0
130 -131 0
-129 -130 131 0
129 -133 0
-130 -133 0
132 -133 0
-129 130 -132 133 0
129 -135 0
-130 -135 0
-132 -135 0
134 -135 0
-129 130 132 -134 135 0
129 -137 0
-130 -137 0
-132 -137 0
-134 -137 0
136 -137 0
-129 130 132 134 -136 137 0
129 -140 0
-130 -140 0
-132 -140 0
-134 -140 0
-136 -140 0
138 -140 0
139 -140 0
-129 130 132 134 136 -138 -139 140 0
129 -141 0
-130 -141 0
-132 -141 0
-134 -141 0
-136 -141 0
138 -141 0
-139 -141 0
-129 130 132 134 136 -138 139 141 0
-140 142 0
-141 142 0
140 141 -142 0
142 -144 0
143 -144 0
-142 -143 144 0
142 -145 0
-143 -145 0
-142 143 145 0
-144 146 0
-145 146 0
144 145 -146 0
146 -148 0
147 -148 0
-146 -147 148 0
129 -150 0
-130 -150 0
-132 -150 0
-134 -150 0
-136 -150 0
-138 -150 0
149 -150 0
-129 130 132 134 136 138 -149 150 0
129 -151 0
-130 -151 0
-132 -151 0
-134 -151 0
-136 -151 0
-138 -151 0
-149 -151 0
-129 130 132 134 136 138 149 151 0
-150 152 0
-151 152 0
150 151 -152 0
152 -154 0
153 -154 0
-152 -153 154 0
152 -155 0
-153 -155 0
-152 153 155 0
-154 156 0
-155 156 0
154 155 -156 0
156 -158 0
157 -158 0
-156 -157 158 0
146 -159 0
-147 -159 0
-146 147 159 0
156 -160 0
-157 -160 0
-156 157 160 0
-148 161 0
-158 161 0
-159 161 0
-160 161 0
148 158 159 160 -161 0
161 -163 0
-162 -163 0
-161 162 163 0
161 -165 0
162 -165 0
164 -165 0
-161 -162 -164 165 0
161 -166 0
162 -166 0
-164 -166 0
-161 -162 164 166 0
109 167 0
-131 167 0
-133 167 0
-135 167 0
-137 167 0
-163 167 0
-165 167 0
-166 167 0
-109 131 133 135 137 163 165 166 -167 0
108 -168 0
167 -168 0
-108 -167 168 0
-12 169 0
12 169 0
6 -170 0
169 -170 0
-6 -169 170 0
-170 171 0
6 171 0
170 -6 -171 0
171 -172 0
-21 -172 0
-171 21 172 0
171 -173 0
27 -173 0
28 -173 0
-171 -27 -28 173 0
171 -174 0
27 -174 0
-28 -174 0
30 -174 0
63 -174 0
-65 -174 0
-171 -27 28 -30 -63 65 174 0
171 -175 0
27 -175 0
-28 -175 0
30 -175 0
63 -175 0
65 -175 0
-171 -27 28 -30 -63 -65 175 0
171 -176 0
27 -176 0
-28 -176 0
30 -176 0
-63 -176 0
-171 -27 28 -30 63 176 0
171 -177 0
31 -177 0
-171 -31 177 0
171 -178 0
-31 -178 0
-171 31 178 0
-177 179 0
-178 179 0
177 178 -179 0
-34 180 0
-36 180 0
-39 180 0
-41 180 0
-43 180 0
-45 180 0
-47 180 0
-49 180 0
34 36 39 41 43 45 47 49 -180 0
179 -181 0
180 -181 0
-179 -180 181 0
179 -182 0
32 -182 0
33 -182 0
-35 -182 0
37 -182 0
-38 -182 0
40 -182 0
-46 -182 0
-48 -182 0
59 -182 0
-179 -32 -33 35 -37 38 -40 46 48 -59 182 0
-53 183 0
-54 183 0
53 54 -183 0
179 -184 0
183 -184 0
-179 -183 184 0
-181 185 0
-182 185 0
-184 185 0
181 182 184 -185 0
185 -186 0
27 -186 0
-28 -186 0
-30 -186 0
61 -186 0
-185 -27 28 30 -61 186 0
-174 187 0
-175 187 0
-176 187 0
-186 187 0
174 175 176 186 -187 0
187 -188 0
68 -188 0
69 -188 0
-187 -68 -69 188 0
187 -189 0
68 -189 0
-69 -189 0
-187 -68 69 189 0
-173 190 0
-188 190 0
-189 190 0
173 188 189 -190 0
190 -191 0
21 -191 0
25 -191 0
72 -191 0
74 -191 0
75 -191 0
-190 -21 -25 -72 -74 -75 191 0
190 -192 0
21 -192 0
25 -192 0
72 -192 0
74 -192 0
-75 -192 0
78 -192 0
-190 -21 -25 -72 -74 75 -78 192 0
-191 193 0
-192 193 0
191 192 -193 0
-82 194 0
-83 194 0
82 83 -194 0
193 -195 0
194 -195 0
-193 -194 195 0
-172 196 0
-195 196 0
172 195 -196 0
5 -197 0
196 -197 0
-5 -196 197 0
-5 -198 0
171 -198 0
5 -171 198 0
-197 199 0
-198 199 0
197 198 -199 0
199 -200 0
-88 -200 0
-199 88 200 0
199 -201 0
88 -201 0
-199 -88 201 0
-200 202 0
-201 202 0
200 201 -202 0
4 -203 0
202 -203 0
-4 -202 203 0
-4 -204 0
199 -204 0
4 -199 204 0
-203 205 0
-204 205 0
203 204 -205 0
205 -206 0
-93 -206 0
-205 93 206 0
205 -207 0
93 -207 0
-205 -93 207 0
-206 208 0
-207 208 0
206 207 -208 0
3 -209 0
208 -209 0
-3 -208 209 0
-3 -210 0
205 -210 0
3 -205 210 0
-209 211 0
-210 211 0
209 210 -211 0
211 -212 0
-98 -212 0
-211 98 212 0
211 -213 0
98 -213 0
-211 -98 213 0
-212 214 0
-213 214 0
212 213 -214 0
2 -215 0
214 -215 0
-2 -214 215 0
211 -216 0
-102 -216 0
-211 102 216 0
211 -217 0
102 -217 0
-211 -102 217 0
-216 218 0
-217 218 0
216 217 -218 0
101 -219 0
218 -219 0
-101 -218 219 0
-101 -220 0
211 -220 0
101 -211 220 0
-219 221 0
-220 221 0
219 220 -221 0
-2 -222 0
221 -222 0
2 -221 222 0
-215 223 0
-222 223 0
215 222 -223 0
223 -224 0
-109 -224 0
-223 109 224 0
223 -225 0
109 -225 0
110 -225 0
-223 -109 -110 225 0
223 -226 0
109 -226 0
-110 -226 0
-223 -109 110 226 0
-225 227 0
-226 227 0
225 226 -227 0
227 -228 0
113 -228 0
114 -228 0
-227 -113 -114 228 0
227 -229 0
113 -229 0
-114 -229 0
-227 -113 114 229 0
-228 230 0
-229 230 0
228 229 -230 0
230 -231 0
125 -231 0
126 -231 0
-230 -125 -126 231 0
230 -232 0
125 -232 0
-126 -232 0
-230 -125 126 232 0
-231 233 0
-232 233 0
231 232 -233 0
-131 234 0
-133 234 0
-135 234 0
-137 234 0
131 133 135 137 -234 0
233 -235 0
234 -235 0
-233 -234 235 0
233 -236 0
129 -236 0
-130 -236 0
-132 -236 0
-134 -236 0
-136 -236 0
-138 -236 0
149 -236 0
-233 -129 130 132 134 136 138 -149 236 0
233 -237 0
129 -237 0
-130 -237 0
-132 -237 0
-134 -237 0
-136 -237 0
-138 -237 0
-149 -237 0
-233 -129 130 132 134 136 138 149 237 0
-236 238 0
-237 238 0
236 237 -238 0
238 -239 0
152 -239 0
153 -239 0
-238 -152 -153 239 0
238 -240 0
152 -240 0
-153 -240 0
-238 -152 153 240 0
-239 241 0
-240 241 0
239 240 -241 0
241 -242 0
156 -242 0
157 -242 0
-241 -156 -157 242 0
241 -243 0
156 -243 0
-157 -243 0
-241 -156 157 243 0
233 -244 0
129 -244 0
-130 -244 0
-132 -244 0
-134 -244 0
-136 -244 0
138 -244 0
139 -244 0
-233 -129 130 132 134 136 -138 -139 244 0
233 -245 0
129 -245 0
-130 -245 0
-132 -245 0
-134 -245 0
-136 -245 0
138 -245 0
-139 -245 0
-233 -129 130 132 134 136 -138 139 245 0
-244 246 0
-245 246 0
244 245 -246 0
246 -247 0
142 -247 0
143 -247 0
-246 -142 -143 247 0
246 -248 0
142 -248 0
-143 -248 0
-246 -142 143 248 0
-247 249 0
-248 249 0
247 248 -249 0
249 -250 0
146 -250 0
147 -250 0
-249 -146 -147 250 0
249 -251 0
146 -251 0
-147 -251 0
-249 -146 147 251 0
-242 252 0
-243 252 0
-250 252 0
-251 252 0
242 243 250 251 -252 0
-165 253 0
-166 253 0
165 166 -253 0
-163 254 0
-253 254 0
163 253 -254 0
252 -255 0
254 -255 0
-252 -254 255 0
-224 256 0
-235 256 0
-255 256 0
224 235 255 -256 0
-12 257 0
12 257 0
6 -258 0
257 -258 0
-6 -257 258 0
-258 259 0
6 259 0
258 -6 -259 0
259 -260 0
-21 -260 0
-259 21 260 0
259 -261 0
27 -261 0
28 -261 0
-259 -27 -28 261 0
259 -262 0
27 -262 0
-28 -262 0
30 -262 0
63 -262 0
-65 -262 0
-259 -27 28 -30 -63 65 262 0
259 -263 0
27 -263 0
-28 -263 0
30 -263 0
63 -263 0
65 -263 0
-259 -27 28 -30 -63 -65 263 0
259 -264 0
27 -264 0
-28 -264 0
30 -264 0
-63 -264 0
-259 -27 28 -30 63 264 0
259 -265 0
31 -265 0
-259 -31 265 0
259 -266 0
-31 -266 0
-259 31 266 0
-265 267 0
-266 267 0
265 266 -267 0
-34 268 0
-36 268 0
-39 268 0
-41 268 0
-43 268 0
-45 268 0
-47 268 0
-49 268 0
34 36 39 41 43 45 47 49 -268 0
267 -269 0
268 -269 0
-267 -268 269 0
267 -270 0
32 -270 0
33 -270 0
-35 -270 0
37 -270 0
-38 -270 0
40 -270 0
-46 -270 0
-48 -270 0
59 -270 0
-267 -32 -33 35 -37 38 -40 46 48 -59 270 0
267 -271 0
183 -271 0
-267 -183 271 0
-269 272 0
-270 272 0
-271 272 0
269 270 271 -272 0
272 -273 0
27 -273 0
-28 -273 0
-30 -273 0
61 -273 0
-272 -27 28 30 -61 273 0
-262 274 0
-263 274 0
-264 274 0
-273 274 0
262 263 264 273 -274 0
274 -275 0
68 -275 0
69 -275 0
-274 -68 -69 275 0
274 -276 0
68 -276 0
-69 -276 0
-274 -68 69 276 0
-261 277 0
-275 277 0
-276 277 0
261 275 276 -277 0
277 -278 0
21 -278 0
25 -278 0
72 -278 0
74 -278 0
75 -278 0
-277 -21 -25 -72 -74 -75 278 0
277 -279 0
21 -279 0
25 -279 0
72 -279 0
74 -279 0
-75 -279 0
78 -279 0
-277 -21 -25 -72 -74 75 -78 279 0
-278 280 0
-279 280 0
278 279 -280 0
280 -281 0
194 -281 0
-280 -194 281 0
-260 282 0
-281 282 0
260 281 -282 0
5 -283 0
282 -283 0
-5 -282 283 0
-5 -284 0
259 -284 0
5 -259 284 0
-283 285 0
-284 285 0
283 284 -285 0
285 -286 0
-88 -286 0
-285 88 286 0
285 -287 0
88 -287 0
-285 -88 287 0
-286 288 0
-287 288 0
286 287 -288 0
4 -289 0
288 -289 0
-4 -288 289 0
-4 -290 0
285 -290 0
4 -285 290 0
-289 291 0
-290 291 0
289 290 -291 0
291 -292 0
-93 -292 0
-291 93 292 0
291 -293 0
93 -293 0
-291 -93 293 0
-292 294 0
-293 294 0
292 293 -294 0
3 -295 0
294 -295 0
-3 -294 295 0
-3 -296 0
291 -296 0
3 -291 296 0
-295 297 0
-296 297 0
295 296 -297 0
297 -298 0
-98 -298 0
-297 98 298 0
297 -299 0
98 -299 0
-297 -98 299 0
-298 300 0
-299 300 0
298 299 -300 0
2 -301 0
300 -301 0
-2 -300 301 0
297 -302 0
-102 -302 0
-297 102 302 0
297 -303 0
102 -303 0
-297 -102 303 0
-302 304 0
-303 304 0
302 303 -304 0
101 -305 0
304 -305 0
-101 -304 305 0
-101 -306 0
297 -306 0
101 -297 306 0
-305 307 0
-306 307 0
305 306 -307 0
-2 -308 0
307 -308 0
2 -307 308 0
-301 309 0
-308 309 0
301 308 -309 0
309 -310 0
-109 -310 0
-309 109 310 0
309 -311 0
109 -311 0
110 -311 0
-309 -109 -110 311 0
309 -312 0
109 -312 0
-110 -312 0
-309 -109 110 312 0
-311 313 0
-312 313 0
311 312 -313 0
313 -314 0
113 -314 0
114 -314 0
-313 -113 -114 314 0
313 -315 0
113 -315 0
-114 -315 0
-313 -113 114 315 0
-314 316 0
-315 316 0
314 315 -316 0
316 -317 0
125 -317 0
126 -317 0
-316 -125 -126 317 0
316 -318 0
125 -318 0
-126 -318 0
-316 -125 126 318 0
-317 319 0
-318 319 0
317 318 -319 0
-131 320 0
-133 320 0
-135 320 0
-137 320 0
131 133 135 137 -320 0
319 -321 0
320 -321 0
-319 -320 321 0
319 -322 0
129 -322 0
-130 -322 0
-132 -322 0
-134 -322 0
-136 -322 0
-138 -322 0
149 -322 0
-319 -129 130 132 134 136 138 -149 322 0
319 -323 0
129 -323 0
-130 -323 0
-132 -323 0
-134 -323 0
-136 -323 0
-138 -323 0
-149 -323 0
-319 -129 130 132 134 136 138 149 323 0
-322 324 0
-323 324 0
322 323 -324 0
324 -325 0
152 -325 0
153 -325 0
-324 -152 -153 325 0
324 -326 0
152 -326 0
-153 -326 0
-324 -152 153 326 0
-325 327 0
-326 327 0
325 326 -327 0
327 -328 0
156 -328 0
157 -328 0
-327 -156 -157 328 0
327 -329 0
156 -329 0
-157 -329 0
-327 -156 157 329 0
319 -330 0
129 -330 0
-130 -330 0
-132 -330 0
-134 -330 0
-136 -330 0
138 -330 0
139 -330 0
-319 -129 130 132 134 136 -138 -139 330 0
319 -331 0
129 -331 0
-130 -331 0
-132 -331 0
-134 -331 0
-136 -331 0
138 -331 0
-139 -331 0
-319 -129 130 132 134 136 -138 139 331 0
-330 332 0
-331 332 0
330 331 -332 0
332 -333 0
142 -333 0
143 -333 0
-332 -142 -143 333 0
332 -334 0
142 -334 0
-143 -334 0
-332 -142 143 334 0
-333 335 0
-334 335 0
333 334 -335 0
335 -336 0
146 -336 0
147 -336 0
-335 -146 -147 336 0
335 -337 0
146 -337 0
-147 -337 0
-335 -146 147 337 0
-328 338 0
-329 338 0
-336 338 0
-337 338 0
328 329 336 337 -338 0
-163 339 0
-253 339 0
163 253 -339 0
338 -340 0
339 -340 0
-338 -339 340 0
-310 341 0
-321 341 0
-340 341 0
310 321 340 -341 0
347 -349 0
348 -349 0
-347 -348 349 0
347 -350 0
-348 -350 0
-347 348 350 0
347 351 0
-349 351 0
-350 351 0
-347 349 350 -351 0
-352 353 0
352 353 0
346 -354 0
351 -354 0
353 -354 0
-346 -351 -353 354 0
-346 -355 0
351 -355 0
346 -351 355 0
-354 356 0
-355 356 0
354 355 -356 0
-357 358 0
357 358 0
-359 360 0
359 360 0
362 -364 0
-363 -364 0
-362 363 364 0
362 365 0
-364 365 0
-362 364 -365 0
-366 367 0
366 367 0
367 -369 0
368 -369 0
-367 -368 369 0
-371 372 0
371 372 0
372 -374 0
-373 -374 0
-372 373 374 0
372 -376 0
373 -376 0
375 -376 0
-372 -373 -375 376 0
372 -379 0
373 -379 0
-375 -379 0
377 -379 0
378 -379 0
-372 -373 375 -377 -378 379 0
372 -381 0
373 -381 0
-375 -381 0
377 -381 0
-378 -381 0
-380 -381 0
-372 -373 375 -377 378 380 381 0
372 -383 0
373 -383 0
-375 -383 0
-377 -383 0
-382 -383 0
-372 -373 375 377 382 383 0
372 -385 0
373 -385 0
-375 -385 0
-377 -385 0
382 -385 0
384 -385 0
-372 -373 375 377 -382 -384 385 0
372 -387 0
373 -387 0
-375 -387 0
377 -387 0
-378 -387 0
380 -387 0
386 -387 0
-372 -373 375 -377 378 -380 -386 387 0
372 -389 0
373 -389 0
-375 -389 0
377 -389 0
-378 -389 0
380 -389 0
-386 -389 0
388 -389 0
-372 -373 375 -377 378 -380 386 -388 389 0
-390 391 0
390 391 0
372 -393 0
373 -393 0
-375 -393 0
-377 -393 0
382 -393 0
-384 -393 0
391 -393 0
392 -393 0
-372 -373 375 377 -382 384 -391 -392 393 0
372 -394 0
373 -394 0
-375 -394 0
-377 -394 0
382 -394 0
-384 -394 0
391 -394 0
-392 -394 0
-372 -373 375 377 -382 384 -391 392 394 0
395 -397 0
396 -397 0
-395 -396 397 0
395 -398 0
-396 -398 0
-395 396 398 0
395 399 0
-397 399 0
-398 399 0
-395 397 398 -399 0
372 -400 0
373 -400 0
-375 -400 0
377 -400 0
-378 -400 0
380 -400 0
-386 -400 0
-388 -400 0
399 -400 0
-372 -373 375 -377 378 -380 386 388 -399 400 0
-374 401 0
-376 401 0
-379 401 0
-381 401 0
-383 401 0
-385 401 0
-387 401 0
-389 401 0
-393 401 0
-394 401 0
-400 401 0
374 376 379 381 383 385 387 389 393 394 400 -401 0
367 -402 0
-368 -402 0
-370 -402 0
401 -402 0
-367 368 370 -401 402 0
367 -404 0
-368 -404 0
370 -404 0
-403 -404 0
-367 368 -370 403 404 0
367 -406 0
-368 -406 0
370 -406 0
403 -406 0
-405 -406 0
-367 368 -370 -403 405 406 0
367 -407 0
-368 -407 0
370 -407 0
403 -407 0
405 -407 0
-367 368 -370 -403 -405 407 0
-402 408 0
-404 408 0
-406 408 0
-407 408 0
402 404 406 407 -408 0
408 -410 0
409 -410 0
-408 -409 410 0
408 -411 0
-409 -411 0
-408 409 411 0
-369 412 0
-410 412 0
-411 412 0
369 410 411 -412 0
-413 414 0
413 414 0
361 -416 0
365 -416 0
412 -416 0
414 -416 0
415 -416 0
-361 -365 -412 -414 -415 416 0
-417 418 0
417 418 0
361 -419 0
365 -419 0
412 -419 0
414 -419 0
-415 -419 0
418 -419 0
-361 -365 -412 -414 415 -418 419 0
-416 420 0
-419 420 0
416 419 -420 0
420 -422 0
421 -422 0
-420 -421 422 0
420 -423 0
-421 -423 0
-420 421 423 0
361 424 0
-422 424 0
-423 424 0
-361 422 423 -424 0
345 -425 0
356 -425 0
358 -425 0
360 -425 0
424 -425 0
-345 -356 -358 -360 -424 425 0
-345 -426 0
356 -426 0
358 -426 0
360 -426 0
345 -356 -358 -360 426 0
-425 427 0
-426 427 0
425 426 -427 0
428 429 0
-428 429 0
344 -430 0
427 -430 0
429 -430 0
-344 -427 -429 430 0
-344 -431 0
427 -431 0
344 -427 431 0
-430 432 0
-431 432 0
430 431 -432 0
433 434 0
-433 434 0
343 -435 0
432 -435 0
434 -435 0
-343 -432 -434 435 0
-343 -436 0
432 -436 0
343 -432 436 0
-435 437 0
-436 437 0
435 436 -437 0
438 439 0
-438 439 0
342 -440 0
437 -440 0
439 -440 0
-342 -437 -439 440 0
442 443 0
-442 443 0
441 -444 0
437 -444 0
443 -444 0
-441 -437 -443 444 0
-441 -445 0
437 -445 0
441 -437 445 0
-444 446 0
-445 446 0
444 445 -446 0
-342 -447 0
446 -447 0
342 -446 447 0
-440 448 0
-447 448 0
440 447 -448 0
449 -451 0
450 -451 0
-449 -450 451 0
449 -452 0
-450 -452 0
-449 450 452 0
-451 453 0
-452 453 0
451 452 -453 0
453 -455 0
454 -455 0
-453 -454 455 0
453 -456 0
-454 -456 0
-453 454 456 0
-455 457 0
-456 457 0
455 456 -457 0
457 -460 0
-458 -460 0
459 -460 0
-457 458 -459 460 0
457 -461 0
-458 -461 0
-459 -461 0
-457 458 459 461 0
457 -463 0
458 -463 0
462 -463 0
-457 -458 -462 463 0
457 -464 0
458 -464 0
-462 -464 0
-457 -458 462 464 0
-460 465 0
-461 465 0
-463 465 0
-464 465 0
460 461 463 464 -465 0
465 -467 0
466 -467 0
-465 -466 467 0
465 -468 0
-466 -468 0
-465 466 468 0
-467 469 0
-468 469 0
467 468 -469 0
469 -471 0
470 -471 0
-469 -470 471 0
469 -473 0
-470 -473 0
472 -473 0
-469 470 -472 473 0
469 -475 0
-470 -475 0
-472 -475 0
474 -475 0
-469 470 472 -474 475 0
469 -477 0
-470 -477 0
-472 -477 0
-474 -477 0
476 -477 0
-469 470 472 474 -476 477 0
469 -480 0
-470 -480 0
-472 -480 0
-474 -480 0
-476 -480 0
478 -480 0
479 -480 0
-469 470 472 474 476 -478 -479 480 0
469 -481 0
-470 -481 0
-472 -481 0
-474 -481 0
-476 -481 0
478 -481 0
-479 -481 0
-469 470 472 474 476 -478 479 481 0
-480 482 0
-481 482 0
480 481 -482 0
482 -484 0
483 -484 0
-482 -483 484 0
482 -485 0
-483 -485 0
-482 483 485 0
-484 486 0
-485 486 0
484 485 -486 0
486 -488 0
487 -488 0
-486 -487 488 0
469 -490 0
-470 -490 0
-472 -490 0
-474 -490 0
-476 -490 0
-478 -490 0
489 -490 0
-469 470 472 474 476 478 -489 490 0
469 -491 0
-470 -491 0
-472 -491 0
-474 -491 0
-476 -491 0
-478 -491 0
-489 -491 0
-469 470 472 474 476 478 489 491 0
-490 492 0
-491 492 0
490 491 -492 0
492 -494 0
493 -494 0
-492 -493 494 0
492 -495 0
-493 -495 0
-492 493 495 0
-494 496 0
-495 496 0
494 495 -496 0
496 -498 0
497 -498 0
-496 -497 498 0
486 -499 0
-487 -499 0
-486 487 499 0
496 -500 0
-497 -500 0
-496 497 500 0
-488 501 0
-498 501 0
-499 501 0
-500 501 0
488 498 499 500 -501 0
501 -503 0
-502 -503 0
-501 502 503 0
501 -505 0
502 -505 0
504 -505 0
-501 -502 -504 505 0
501 -506 0
502 -506 0
-504 -506 0
-501 -502 504 506 0
449 507 0
-471 507 0
-473 507 0
-475 507 0
-477 507 0
-503 507 0
-505 507 0
-506 507 0
-449 471 473 475 477 503 505 506 -507 0
448 -508 0
507 -508 0
-448 -507 508 0
-352 509 0
352 509 0
346 -510 0
509 -510 0
-346 -509 510 0
-510 511 0
346 511 0
510 -346 -511 0
511 -512 0
-361 -512 0
-511 361 512 0
511 -513 0
367 -513 0
368 -513 0
-511 -367 -368 513 0
511 -514 0
367 -514 0
-368 -514 0
370 -514 0
403 -514 0
-405 -514 0
-511 -367 368 -370 -403 405 514 0
511 -515 0
367 -515 0
-368 -515 0
370 -515 0
403 -515 0
405 -515 0
-511 -367 368 -370 -403 -405 515 0
511 -516 0
367 -516 0
-368 -516 0
370 -516 0
-403 -516 0
-511 -367 368 -370 403 516 0
511 -517 0
371 -517 0
-511 -371 517 0
511 -518 0
-371 -518 0
-511 371 518 0
-517 519 0
-518 519 0
517 518 -519 0
-374 520 0
-376 520 0
-379 520 0
-381 520 0
-383 520 0
-385 520 0
-387 520 0
-389 520 0
374 376 379 381 383 385 387 389 -520 0
519 -521 0
520 -521 0
-519 -520 521 0
519 -522 0
372 -522 0
373 -522 0
-375 -522 0
377 -522 0
-378 -522 0
380 -522 0
-386 -522 0
-388 -522 0
399 -522 0
-519 -372 -373 375 -377 378 -380 386 388 -399 522 0
-393 523 0
-394 523 0
393 394 -523 0
519 -524 0
523 -524 0
-519 -523 524 0
-521 525 0
-522 525 0
-524 525 0
521 522 524 -525 0
525 -526 0
367 -526 0
-368 -526 0
-370 -526 0
401 -526 0
-525 -367 368 370 -401 526 0
-514 527 0
-515 527 0
-516 527 0
-526 527 0
514 515 516 526 -527 0
527 -528 0
408 -528 0
409 -528 0
-527 -408 -409 528 0
527 -529 0
408 -529 0
-409 -529 0
-527 -408 409 529 0
-513 530 0
-528 530 0
-529 530 0
513 528 529 -530 0
530 -531 0
361 -531 0
365 -531 0
412 -531 0
414 -531 0
415 -531 0
-530 -361 -365 -412 -414 -415 531 0
530 -532 0
361 -532 0
365 -532 0
412 -532 0
414 -532 0
-415 -532 0
418 -532 0
-530 -361 -365 -412 -414 415 -418 532 0
-531 533 0
-532 533 0
531 532 -533 0
-422 534 0
-423 534 0
422 423 -534 0
533 -535 0
534 -535 0
-533 -534 535 0
-512 536 0
-535 536 0
512 535 -536 0
345 -537 0
536 -537 0
-345 -536 537 0
-345 -538 0
511 -538 0
345 -511 538 0
-537 539 0
-538 539 0
537 538 -539 0
539 -540 0
-428 -540 0
-539 428 540 0
539 -541 0
428 -541 0
-539 -428 541 0
-540 542 0
-541 542 0
540 541 -542 0
344 -543 0
542 -543 0
-344 -542 543 0
-344 -544 0
539 -544 0
344 -539 544 0
-543 545 0
-544 545 0
543 544 -545 0
545 -546 0
-433 -546 0
-545 433 546 0
545 -547 0
433 -547 0
-545 -433 547 0
-546 548 0
-547 548 0
546 547 -548 0
343 -549 0
548 -549 0
-343 -548 549 0
-343 -550 0
545 -550 0
343 -545 550 0
-549 551 0
-550 551 0
549 550 -551 0
551 -552 0
-438 -552 0
-551 438 552 0
551 -553 0
438 -553 0
-551 -438 553 0
-552 554 0
-553 554 0
552 553 -554 0
342 -555 0
554 -555 0
-342 -554 555 0
551 -556 0
-442 -556 0
-551 442 556 0
551 -557 0
442 -557 0
-551 -442 557 0
-556 558 0
-557 558 0
556 557 -558 0
441 -559 0
558 -559 0
-441 -558 559 0
-441 -560 0
551 -560 0
441 -551 560 0
-559 561 0
-560 561 0
559 560 -561 0
-342 -562 0
561 -562 0
342 -561 562 0
-555 563 0
-562 563 0
555 562 -563 0
563 -564 0
-449 -564 0
-563 449 564 0
563 -565 0
449 -565 0
450 -565 0
-563 -449 -450 565 0
563 -566 0
449 -566 0
-450 -566 0
-563 -449 450 566 0
-565 567 0
-566 567 0
565 566 -567 0
567 -568 0
453 -568 0
454 -568 0
-567 -453 -454 568 0
567 -569 0
453 -569 0
-454 -569 0
-567 -453 454 569 0
-568 570 0
-569 570 0
568 569 -570 0
570 -571 0
465 -571 0
466 -571 0
-570 -465 -466 571 0
570 -572 0
465 -572 0
-466 -572 0
-570 -465 466 572 0
-571 573 0
-572 573 0
571 572 -573 0
-471 574 0
-473 574 0
-475 574 0
-477 574 0
471 473 475 477 -574 0
573 -575 0
574 -575 0
-573 -574 575 0
573 -576 0
469 -576 0
-470 -576 0
-472 -576 0
-474 -576 0
-476 -576 0
-478 -576 0
489 -576 0
-573 -469 470 472 474 476 478 -489 576 0
573 -577 0
469 -577 0
-470 -577 0
-472 -577 0
-474 -577 0
-476 -577 0
-478 -577 0
-489 -577 0
-573 -469 470 472 474 476 478 489 577 0
-576 578 0
-577 578 0
576 577 -578 0
578 -579 0
492 -579 0
493 -579 0
-578 -492 -493 579 0
578 -580 0
492 -580 0
-493 -580 0
-578 -492 493 580 0
-579 581 0
-580 581 0
579 580 -581 0
581 -582 0
496 -582 0
497 -582 0
-581 -496 -497 582 0
581 -583 0
496 -583 0
-497 -583 0
-581 -496 497 583 0
573 -584 0
469 -584 0
-470 -584 0
-472 -584 0
-474 -584 0
-476 -584 0
478 -584 0
479 -584 0
-573 -469 470 472 474 476 -478 -479 584 0
573 -585 0
469 -585 0
-470 -585 0
-472 -585 0
-474 -585 0
-476 -585 0
478 -585 0
-479 -585 0
-573 -469 470 472 474 476 -478 479 585 0
-584 586 0
-585 586 0
584 585 -586 0
586 -587 0
482 -587 0
483 -587 0
-586 -482 -483 587 0
586 -588 0
482 -588 0
-483 -588 0
-586 -482 483 588 0
-587 589 0
-588 589 0
587 588 -589 0
589 -590 0
486 -590 0
487 -590 0
-589 -486 -487 590 0
589 -591 0
486 -591 0
-487 -591 0
-589 -486 487 591 0
-582 592 0
-583 592 0
-590 592 0
-591 592 0
582 583 590 591 -592 0
-505 593 0
-506 593 0
505 506 -593 0
-503 594 0
-593 594 0
503 593 -594 0
592 -595 0
594 -595 0
-592 -594 595 0
-564 596 0
-575 596 0
-595 596 0
564 575 595 -596 0
-352 597 0
352 597 0
346 -598 0
597 -598 0
-346 -597 598 0
-598 599 0
346 599 0
598 -346 -599 0
599 -600 0
-361 -600 0
-599 361 600 0
599 -601 0
367 -601 0
368 -601 0
-599 -367 -368 601 0
599 -602 0
367 -602 0
-368 -602 0
370 -602 0
403 -602 0
-405 -602 0
-599 -367 368 -370 -403 405 602 0
599 -603 0
367 -603 0
-368 -603 0
370 -603 0
403 -603 0
405 -603 0
-599 -367 368 -370 -403 -405 603 0
599 -604 0
367 -604 0
-368 -604 0
370 -604 0
-403 -604 0
-599 -367 368 -370 403 604 0
599 -605 0
371 -605 0
-599 -371 605 0
599 -606 0
-371 -606 0
-599 371 606 0
-605 607 0
-606 607 0
605 606 -607 0
-374 608 0
-376 608 0
-379 608 0
-381 608 0
-383 608 0
-385 608 0
-387 608 0
-389 608 0
374 376 379 381 383 385 387 389 -608 0
607 -609 0
608 -609 0
-607 -608 609 0
607 -610 0
372 -610 0
373 -610 0
-375 -610 0
377 -610 0
-378 -610 0
380 -610 0
-386 -610 0
-388 -610 0
399 -610 0
-607 -372 -373 375 -377 378 -380 386 388 -399 610 0
607 -611 0
523 -611 0
-607 -523 611 0
-609 612 0
-610 612 0
-611 612 0
609 610 611 -612 0
612 -613 0
367 -613 0
-368 -613 0
-370 -613 0
401 -613 0
-612 -367 368 370 -401 613 0
-602 614 0
-603 614 0
-604 614 0
-613 614 0
602 603 604 613 -614 0
614 -615 0
408 -615 0
409 -615 0
-614 -408 -409 615 0
614 -616 0
408 -616 0
-409 -616 0
-614 -408 409 616 0
-601 617 0
-615 617 0
-616 617 0
601 615 616 -617 0
617 -618 0
361 -618 0
365 -618 0
412 -618 0
414 -618 0
415 -618 0
-617 -361 -365 -412 -414 -415 618 0
617 -619 0
361 -619 0
365 -619 0
412 -619 0
414 -619 0
-415 -619 0
418 -619 0
-617 -361 -365 -412 -414 415 -418 619 0
-618 620 0
-619 620 0
618 619 -620 0
620 -621 0
534 -621 0
-620 -534 621 0
-600 622 0
-621 622 0
600 621 -622 0
345 -623 0
622 -623 0
-345 -622 623 0
-345 -624 0
599 -624 0
345 -599 624 0
-623 625 0
-624 625 0
623 624 -625 0
625 -626 0
-428 -626 0
-625 428 626 0
625 -627 0
428 -627 0
-625 -428 627 0
-626 628 0
-627 628 0
626 627 -628 0
344 -629 0
628 -629 0
-344 -628 629 0
-344 -630 0
625 -630 0
344 -625 630 0
-629 631 0
-630 631 0
629 630 -631 0
631 -632 0
-433 -632 0
-631 433 632 0
631 -633 0
433 -633 0
-631 -433 633 0
-632 634 0
-633 634 0
632 633 -634 0
343 -635 0
634 -635 0
-343 -634 635 0
-343 -636 0
631 -636 0
343 -631 636 0
-635 637 0
-636 637 0
635 636 -637 0
637 -638 0
-438 -638 0
-637 438 638 0
637 -639 0
438 -639 0
-637 -438 639 0
-638 640 0
-639 640 0
638 639 -640 0
342 -641 0
640 -641 0
-342 -640 641 0
637 -642 0
-442 -642 0
-637 442 642 0
637 -643 0
442 -643 0
-637 -442 643 0
-642 644 0
-643 644 0
642 643 -644 0
441 -645 0
644 -645 0
-441 -644 645 0
-441 -646 0
637 -646 0
441 -637 646 0
-645 647 0
-646 647 0
645 646 -647 0
-342 -648 0
647 -648 0
342 -647 648 0
-641 649 0
-648 649 0
641 648 -649 0
649 -650 0
-449 -650 0
-649 449 650 0
649 -651 0
449 -651 0
450 -651 0
-649 -449 -450 651 0
649 -652 0
449 -652 0
-450 -652 0
-649 -449 450 652 0
-651 653 0
-652 653 0
651 652 -653 0
653 -654 0
453 -654 0
454 -654 0
-653 -453 -454 654 0
653 -655 0
453 -655 0
-454 -655 0
-653 -453 454 655 0
-654 656 0
-655 656 0
654 655 -656 0
656 -657 0
465 -657 0
466 -657 0
-656 -465 -466 657 0
656 -658 0
465 -658 0
-466 -658 0
-656 -465 466 658 0
-657 659 0
-658 659 0
657 658 -659 0
-471 660 0
-473 660 0
-475 660 0
-477 660 0
471 473 475 477 -660 0
659 -661 0
660 -661 0
-659 -660 661 0
659 -662 0
469 -662 0
-470 -662 0
-472 -662 0
-474 -662 0
-476 -662 0
-478 -662 0
489 -662 0
-659 -469 470 472 474 476 478 -489 662 0
659 -663 0
469 -663 0
-470 -663 0
-472 -663 0
-474 -663 0
-476 -663 0
-478 -663 0
-489 -663 0
-659 -469 470 472 474 476 478 489 663 0
-662 664 0
-663 664 0
662 663 -664 0
664 -665 0
492 -665 0
493 -665 0
-664 -492 -493 665 0
664 -666 0
492 -666 0
-493 -666 0
-664 -492 493 666 0
-665 667 0
-666 667 0
665 666 -667 0
667 -668 0
496 -668 0
497 -668 0
-667 -496 -497 668 0
667 -669 0
496 -669 0
-497 -669 0
-667 -496 497 669 0
659 -670 0
469 -670 0
-470 -670 0
-472 -670 0
-474 -670 0
-476 -670 0
478 -670 0
479 -670 0
-659 -469 470 472 474 476 -478 -479 670 0
659 -671 0
469 -671 0
-470 -671 0
-472 -671 0
-474 -671 0
-476 -671 0
478 -671 0
-479 -671 0
-659 -469 470 472 474 476 -478 479 671 0
-670 672 0
-671 672 0
670 671 -672 0
672 -673 0
482 -673 0
483 -673 0
-672 -482 -483 673 0
672 -674 0
482 -674 0
-483 -674 0
-672 -482 483 674 0
-673 675 0
-674 675 0
673 674 -675 0
675 -676 0
486 -676 0
487 -676 0
-675 -486 -487 676 0
675 -677 0
486 -677 0
-487 -677 0
-675 -486 487 677 0
-668 678 0
-669 678 0
-676 678 0
-677 678 0
668 669 676 677 -678 0
-503 679 0
-593 679 0
503 593 -679 0
678 -680 0
679 -680 0
-678 -679 680 0
-650 681 0
-661 681 0
-680 681 0
650 661 680 -681 0
-596 -256 -682 0
596 256 -682 0
-596 256 682 0
596 -256 682 0
-681 -341 -683 0
681 341 -683 0
-681 341 683 0
681 -341 683 0
-682 -684 0
-683 -684 0
508 -684 0
682 683 -508 684 0
-168 684 0
